
# PYTHONPATH must include directory above plugin directory.
#     Define either externally or here, then import plugin.
import myscf

molecule {
C   0.000000000000  -0.143225816552   0.000000000000
H   1.638036840407   1.136548822547  -0.000000000000
H  -1.638036840407   1.136548822547  -0.000000000000

units bohr
}

set {
  basis cc-pVDZ
  scf_type pk
}

set myscf {
  print 1
}

energy('myscf')
energy('scf')

myscf.exampleFN()

